p edge 30 109 5
v 6 5 15 23 24 27 28
v 5 3 8 10 13 29
v 8 1 2 4 9 12 17 21 26
v 5 7 14 16 20 30
v 6 6 11 18 19 22 25
e 1 3
e 1 4
e 1 6
e 1 9
e 1 22
e 1 26
e 1 28
e 1 29
e 2 3
e 2 6
e 2 15
e 2 22
e 2 24
e 2 27
e 2 28
e 3 5
e 3 13
e 3 14
e 3 16
e 3 24
e 3 29
e 4 6
e 4 16
e 4 24
e 4 29
e 5 7
e 5 8
e 5 19
e 5 21
e 5 28
e 5 29
e 6 8
e 6 14
e 6 18
e 6 20
e 6 24
e 6 25
e 6 28
e 6 29
e 7 9
e 7 11
e 7 25
e 8 11
e 8 12
e 8 14
e 8 22
e 8 24
e 8 29
e 9 22
e 9 24
e 9 25
e 9 29
e 10 11
e 10 16
e 10 19
e 11 16
e 11 19
e 11 27
e 12 16
e 12 17
e 12 19
e 12 20
e 12 22
e 12 24
e 12 29
e 14 15
e 14 19
e 14 21
e 14 24
e 14 27
e 14 29
e 14 30
e 15 17
e 15 19
e 15 27
e 16 19
e 16 20
e 16 21
e 16 23
e 16 24
e 16 26
e 16 30
e 17 19
e 17 21
e 17 22
e 17 27
e 17 28
e 18 21
e 18 30
e 19 23
e 19 25
e 20 21
e 20 22
e 20 25
e 21 25
e 21 27
e 22 24
e 22 25
e 22 26
e 22 27
e 22 29
e 23 26
e 23 28
e 24 27
e 24 30
e 25 29
e 26 27
e 26 29
e 28 30
